 64 96 13  9 17 19 52  1 54 86 90 26 16 39 51  4 18 35 65  5
 48  6 34 22 12 78 87 24 87 10 46 16 11 73 24 16 68 14 92 93
 30 94 52 49 32 61 30  6 33 33 42 87 55 13 39 20  9 57 83  2
 84 24 84 16 87 22 51 27 87 87 34 99 37 14 59 13 17 33 31 18
  9  1 66 57 90 61 90 60 40 38 25 15 89  5 81 16 28 58 98 90
 93 44  2 87 93 23 92 51  5 32 69 92 21 77 95 17 47  1 13 73
 71 34 40 57 29 78 99 88 40 40 35 57 56 65 63 48 24 40 20 21
 72 65 20 67 61 69 19 63 50 68  7 93 58 31 97 89  5 98 41 81
 33 95  7 34  6 34 62 97  7 18  8 39 86 58 35 12 50 44 81 89
 85 47 54 31 31 83 28 70 49 27 40 37 55 59 46 25 34 84 72 32